(set-info :source  loris-7.ddns.comp.nus.edu.sg/~project/hip/) 
;Variables declarations
(declare-fun n_3090 () Int)
(declare-fun next_477_3087 () Int)
(declare-fun n () Int)
(declare-fun flted_14_3080 () Int)
(declare-fun q_3082 () Int)
(declare-fun xs_primed () Int)
(declare-fun tmp_primed () Int)
(declare-fun q_3097 () Int)
(declare-fun xs () Int)
(declare-fun ys_primed () Int)
(declare-fun xs_3089 () Int)
(declare-fun ys_3088 () Int)
(declare-fun m () Int)
(declare-fun ys () Int)
;Relations declarations
;Axioms assertions
;Antecedent
(assert (= n_3090 flted_14_3080))
(assert (= next_477_3087 q_3082))
(assert (= (+ flted_14_3080 1) n))
(assert (or (and (< q_3082 1) (= flted_14_3080 0)) (and (<= 1 flted_14_3080) (> q_3082 0))))
(assert (= tmp_primed q_3082))
(assert (= xs_primed tmp_primed))
(assert (= xs_3089 1))
(assert (= q_3097 ys_3088))
(assert (> xs_3089 0))
(assert (= xs_3089 xs))
(assert (= ys_primed xs_3089))
(assert (= ys_3088 ys))
(assert (or (and (< ys 1) (= m 0)) (and (<= 1 m) (> ys 0))))
;Negation of Consequence
(assert (not (or (= m 0) (< ys 1))))
(check-sat)